50
    79    31    42    58    25    60    62    41    88    78    38    44     3    85    35    57    96    94    63    41    81    33    68    20    66    47    42    83    46    96    12    86    11    57    51    50    37    20    68    63    94    93    16    75    42    99    87     7    30    76
     5     2     5     1     5    10     2     1     7     2     3     9     1     2     9     5     2     7    10     1     4     8     8     6     5     3     8     2     4     1     7     7     4    10     5     1     8     9     3     4     4     4     4     4     8     5     5     9     3     7
  1458  1500  1613  1863  1932  1890  1814  1841  1765  1803  1532  1393  1829  1652  1794  1588  1759  1547  1820  1450  1917  1624  1663  1477  1743  1539  1815  1884  1712  1910  1424  1695  1691  1598  1773  1420  1785  1908  1724  1585  1803  1665  1759  1536  1549  1411  1635  1850  1396  1802
